3717
3705
3725
3721
3729
3743
3774
3725
3748
3775
3767
3736
3759
3718
3767
3773
3705
3810
3733
3713
3723
3739
3770
3745
3767
3783
3647
3740
3754
3723
3776
3764
3741
3812
3732
3771
3786
3718
3740
3681
3657
3757
3703
3733
3727
3730
3760
3744
3734
3741
3693
3697
3729
3740
3744
3727
3758
3704
3758
3715
3689
3739
3738
3737
3734
3801
3723
3764
3758
3756
3758
3694
3705
3767
3639
3731
3686
3769
3769
3708
3792
3759
3691
3798
3708
3690
3763
3753
3683
3736
3724
3749
3776
3758
3770
3752
3791
3766
3744
3732
